NAME : census.pruned_global_8.0.tour
COMMENT : Length = 0
TYPE : TOUR
DIMENSION : 68
TOUR_SECTION
4
10
13
18
20
22
24
28
36
44
46
50
8
66
33
12
27
29
40
14
49
25
67
64
43
37
56
1
34
41
52
47
35
62
2
31
17
15
39
60
42
7
6
32
54
9
3
63
68
65
61
59
58
57
55
53
51
48
45
38
30
26
23
21
19
16
11
5
-1
EOF
